(set-info :smt-lib-version 2.6)
(set-logic QF_S)
(set-info :source |
Generated by: Hung-En Wang, Tzung-Lin Tsai, Chun-Han Lin, Fang Yu, and Jie-Hong R. Jiang
Generated on: 2019-02-28
Generator: Stranger
Application: Security analysis of string manipulating web applications
Target solver: CVC4, Norn, Z3-str2
Publication:
Hung-En Wang, Tzung-Lin Tsai, Chun-Han Lin, Fang Yu, Jie-Hong R. Jiang:
String Analysis via Automata Manipulation with Logic Circuit Representation. CAV (1) 2016: 241-260.
|)
(set-info :license "https://creativecommons.org/licenses/by/4.0/")
(set-info :category "industrial")
(set-info :status unknown)

(declare-fun sigmaStar_2 () String)
(declare-fun literal_0 () String)
(declare-fun x_3 () String)
(declare-fun epsilon () String)
(declare-fun x_4 () String)
(declare-fun literal_5 () String)
(declare-fun x_6 () String)
(declare-fun x_7 () String)
(declare-fun x_8 () String)
(declare-fun literal_9 () String)
(declare-fun x_10 () String)
(assert (= literal_0 "\u{2f}\u{6d}\u{6f}\u{64}\u{2f}\u{67}\u{6c}\u{6f}\u{73}\u{73}\u{61}\u{72}\u{79}\u{2f}\u{66}\u{6f}\u{72}\u{6d}\u{61}\u{74}\u{73}\u{2f}"))
(assert (= epsilon ""))
(assert (or (= x_3 epsilon) (= x_3 sigmaStar_2)))
(assert (= x_4 (str.++ literal_0 x_3)))
(assert (= literal_5 "\u{2f}"))
(assert (= x_6 (str.++ x_4 literal_5)))
(assert (or (= x_7 epsilon) (= x_7 sigmaStar_2)))
(assert (= x_8 (str.++ x_6 x_7)))
(assert (= literal_9 "\u{5f}\u{66}\u{6f}\u{72}\u{6d}\u{61}\u{74}\u{2e}\u{70}\u{68}\u{70}"))
(assert (= x_10 (str.++ x_8 literal_9)))
(assert (str.in_re x_10 (re.++ (re.* re.allchar) (re.++ (str.to_re "\u{2f}\u{65}\u{76}\u{69}\u{6c}") (re.* re.allchar)))))
(check-sat)
(exit)
